decision_x1=[0,4];
decision_x2=[0,4];
decision_x3=[0,4];
decision_x4=[0,4];
decision_x5=[0,4];
decision_x6=[0,4];
decision_x7=[0,4];
decision_x8=[0,4];
decision_x9=[0,4];
decision_x10=[0,4];
random_y1=[0,4];
random_y2=[0,4];
random_y3=[0,4];
random_y4=[0,4];
random_y5=[0,4];
random_y6=[0,4];
random_y7=[0,4];
random_y8=[0,4];
random_y9=[0,4];
random_y10=[0,4];
constraint_x2_x1=[
0,0,67|
0,1,95|
0,2,58|
0,3,22|
0,4,66|
1,0,8.8|
1,1,4.5|
1,2,20|
1,3,62|
1,4,71|
2,0,81|
2,1,25|
2,2,68|
2,3,63|
2,4,53|
3,0,0.65|
3,1,7|
3,2,96|
3,3,3.6|
3,4,72|
4,0,12|
4,1,85|
4,2,76|
4,3,13|
4,4,33|
];
constraint_x3_x1=[
0,0,33|
0,1,83|
0,2,61|
0,3,44|
0,4,8.1|
1,0,5.5|
1,1,31|
1,2,75|
1,3,47|
1,4,26|
2,0,10|
2,1,39|
2,2,25|
2,3,95|
2,4,42|
3,0,98|
3,1,1e+02|
3,2,16|
3,3,81|
3,4,17|
4,0,93|
4,1,68|
4,2,53|
4,3,23|
4,4,44|
];
constraint_x3_x2=[
0,0,30|
0,1,48|
0,2,66|
0,3,28|
0,4,31|
1,0,27|
1,1,39|
1,2,71|
1,3,32|
1,4,13|
2,0,59|
2,1,34|
2,2,99|
2,3,71|
2,4,76|
3,0,60|
3,1,55|
3,2,88|
3,3,22|
3,4,15|
4,0,84|
4,1,78|
4,2,48|
4,3,44|
4,4,16|
];
constraint_x4_x2=[
0,0,36|
0,1,77|
0,2,85|
0,3,24|
0,4,59|
1,0,1.6|
1,1,93|
1,2,71|
1,3,34|
1,4,35|
2,0,68|
2,1,63|
2,2,82|
2,3,19|
2,4,43|
3,0,31|
3,1,72|
3,2,97|
3,3,33|
3,4,59|
4,0,86|
4,1,94|
4,2,44|
4,3,15|
4,4,40|
];
constraint_x5_x1=[
0,0,99|
0,1,8.4|
0,2,72|
0,3,21|
0,4,61|
1,0,24|
1,1,85|
1,2,84|
1,3,20|
1,4,41|
2,0,1.4|
2,1,85|
2,2,67|
2,3,42|
2,4,5.8|
3,0,16|
3,1,75|
3,2,88|
3,3,9.5|
3,4,59|
4,0,76|
4,1,96|
4,2,34|
4,3,89|
4,4,88|
];
constraint_x6_x1=[
0,0,8|
0,1,90|
0,2,38|
0,3,43|
0,4,75|
1,0,3.1|
1,1,8.4|
1,2,38|
1,3,60|
1,4,95|
2,0,75|
2,1,57|
2,2,28|
2,3,13|
2,4,4.2|
3,0,78|
3,1,98|
3,2,52|
3,3,50|
3,4,74|
4,0,86|
4,1,58|
4,2,71|
4,3,67|
4,4,46|
];
constraint_x6_x2=[
0,0,44|
0,1,3|
0,2,43|
0,3,71|
0,4,47|
1,0,90|
1,1,38|
1,2,60|
1,3,95|
1,4,94|
2,0,52|
2,1,49|
2,2,38|
2,3,5.3|
2,4,98|
3,0,54|
3,1,87|
3,2,0.38|
3,3,31|
3,4,32|
4,0,82|
4,1,30|
4,2,67|
4,3,34|
4,4,57|
];
constraint_x6_x4=[
0,0,78|
0,1,23|
0,2,38|
0,3,13|
0,4,50|
1,0,33|
1,1,88|
1,2,92|
1,3,8.1|
1,4,22|
2,0,18|
2,1,26|
2,2,32|
2,3,94|
2,4,66|
3,0,6.2|
3,1,8.6|
3,2,89|
3,3,1.7|
3,4,53|
4,0,96|
4,1,63|
4,2,5.4|
4,3,89|
4,4,74|
];
constraint_x6_x5=[
0,0,18|
0,1,90|
0,2,32|
0,3,8.1|
0,4,56|
1,0,38|
1,1,78|
1,2,64|
1,3,72|
1,4,35|
2,0,78|
2,1,64|
2,2,7.4|
2,3,93|
2,4,93|
3,0,86|
3,1,9.5|
3,2,36|
3,3,61|
3,4,60|
4,0,62|
4,1,46|
4,2,95|
4,3,69|
4,4,76|
];
constraint_x7_x1=[
0,0,87|
0,1,85|
0,2,17|
0,3,60|
0,4,63|
1,0,1.2|
1,1,7.2|
1,2,43|
1,3,27|
1,4,96|
2,0,22|
2,1,52|
2,2,94|
2,3,74|
2,4,4.8|
3,0,93|
3,1,60|
3,2,95|
3,3,80|
3,4,57|
4,0,53|
4,1,76|
4,2,89|
4,3,72|
4,4,89|
];
constraint_x7_x3=[
0,0,74|
0,1,61|
0,2,36|
0,3,48|
0,4,50|
1,0,47|
1,1,98|
1,2,33|
1,3,84|
1,4,75|
2,0,94|
2,1,56|
2,2,61|
2,3,67|
2,4,12|
3,0,12|
3,1,31|
3,2,17|
3,3,63|
3,4,68|
4,0,76|
4,1,74|
4,2,76|
4,3,54|
4,4,42|
];
constraint_x7_x4=[
0,0,84|
0,1,50|
0,2,35|
0,3,75|
0,4,73|
1,0,51|
1,1,49|
1,2,81|
1,3,42|
1,4,95|
2,0,90|
2,1,47|
2,2,54|
2,3,91|
2,4,14|
3,0,97|
3,1,44|
3,2,22|
3,3,76|
3,4,89|
4,0,51|
4,1,15|
4,2,38|
4,3,54|
4,4,9.2|
];
constraint_x7_x6=[
0,0,0.48|
0,1,31|
0,2,59|
0,3,67|
0,4,78|
1,0,85|
1,1,17|
1,2,84|
1,3,18|
1,4,98|
2,0,71|
2,1,15|
2,2,72|
2,3,44|
2,4,22|
3,0,23|
3,1,51|
3,2,72|
3,3,6.6|
3,4,11|
4,0,79|
4,1,45|
4,2,50|
4,3,73|
4,4,97|
];
constraint_x8_x2=[
0,0,94|
0,1,89|
0,2,42|
0,3,13|
0,4,49|
1,0,24|
1,1,76|
1,2,48|
1,3,47|
1,4,63|
2,0,5.5|
2,1,20|
2,2,87|
2,3,98|
2,4,50|
3,0,31|
3,1,21|
3,2,73|
3,3,26|
3,4,87|
4,0,72|
4,1,64|
4,2,20|
4,3,46|
4,4,31|
];
constraint_x8_x3=[
0,0,62|
0,1,8.8|
0,2,59|
0,3,64|
0,4,2.4|
1,0,21|
1,1,99|
1,2,88|
1,3,10|
1,4,74|
2,0,7.7|
2,1,82|
2,2,51|
2,3,16|
2,4,43|
3,0,2.5|
3,1,59|
3,2,36|
3,3,73|
3,4,36|
4,0,81|
4,1,39|
4,2,99|
4,3,55|
4,4,0.44|
];
constraint_x8_x4=[
0,0,66|
0,1,19|
0,2,15|
0,3,68|
0,4,21|
1,0,64|
1,1,32|
1,2,20|
1,3,81|
1,4,38|
2,0,89|
2,1,34|
2,2,19|
2,3,73|
2,4,39|
3,0,29|
3,1,64|
3,2,85|
3,3,72|
3,4,42|
4,0,15|
4,1,76|
4,2,6.7|
4,3,67|
4,4,75|
];
constraint_x8_x7=[
0,0,51|
0,1,99|
0,2,84|
0,3,27|
0,4,60|
1,0,58|
1,1,55|
1,2,88|
1,3,79|
1,4,25|
2,0,99|
2,1,69|
2,2,85|
2,3,27|
2,4,21|
3,0,74|
3,1,67|
3,2,27|
3,3,84|
3,4,13|
4,0,33|
4,1,15|
4,2,36|
4,3,56|
4,4,15|
];
constraint_x9_x2=[
0,0,58|
0,1,27|
0,2,98|
0,3,40|
0,4,64|
1,0,68|
1,1,46|
1,2,51|
1,3,64|
1,4,3.2|
2,0,48|
2,1,86|
2,2,55|
2,3,92|
2,4,61|
3,0,18|
3,1,82|
3,2,88|
3,3,61|
3,4,17|
4,0,57|
4,1,65|
4,2,94|
4,3,65|
4,4,16|
];
constraint_x9_x6=[
0,0,65|
0,1,90|
0,2,98|
0,3,65|
0,4,97|
1,0,66|
1,1,84|
1,2,7.8|
1,3,57|
1,4,42|
2,0,8|
2,1,41|
2,2,25|
2,3,12|
2,4,84|
3,0,99|
3,1,81|
3,2,16|
3,3,2.7|
3,4,45|
4,0,95|
4,1,15|
4,2,72|
4,3,22|
4,4,83|
];
constraint_x9_x8=[
0,0,16|
0,1,34|
0,2,83|
0,3,56|
0,4,36|
1,0,16|
1,1,64|
1,2,37|
1,3,5|
1,4,25|
2,0,1e+02|
2,1,8.8|
2,2,13|
2,3,40|
2,4,35|
3,0,57|
3,1,90|
3,2,67|
3,3,6.1|
3,4,77|
4,0,28|
4,1,66|
4,2,43|
4,3,17|
4,4,12|
];
constraint_x10_x2=[
0,0,81|
0,1,5.1|
0,2,82|
0,3,3.4|
0,4,95|
1,0,52|
1,1,71|
1,2,17|
1,3,52|
1,4,92|
2,0,3.2|
2,1,33|
2,2,76|
2,3,74|
2,4,92|
3,0,82|
3,1,91|
3,2,39|
3,3,31|
3,4,51|
4,0,98|
4,1,87|
4,2,83|
4,3,30|
4,4,27|
];
constraint_x10_x8=[
0,0,50|
0,1,47|
0,2,25|
0,3,19|
0,4,50|
1,0,93|
1,1,56|
1,2,86|
1,3,52|
1,4,93|
2,0,43|
2,1,48|
2,2,83|
2,3,37|
2,4,19|
3,0,75|
3,1,63|
3,2,83|
3,3,18|
3,4,31|
4,0,32|
4,1,55|
4,2,62|
4,3,3.9|
4,4,59|
];
constraint_x10_x9=[
0,0,31|
0,1,71|
0,2,65|
0,3,49|
0,4,95|
1,0,48|
1,1,50|
1,2,0.34|
1,3,73|
1,4,79|
2,0,15|
2,1,98|
2,2,92|
2,3,66|
2,4,59|
3,0,48|
3,1,18|
3,2,82|
3,3,62|
3,4,70|
4,0,95|
4,1,92|
4,2,28|
4,3,3.5|
4,4,56|
];
constraint_x1_y1=[
0,0,26|
0,1,37|
0,2,34|
0,3,74|
0,4,97|
1,0,71|
1,1,90|
1,2,73|
1,3,20|
1,4,79|
2,0,38|
2,1,38|
2,2,43|
2,3,36|
2,4,80|
3,0,1e+02|
3,1,6.6|
3,2,39|
3,3,70|
3,4,34|
4,0,67|
4,1,31|
4,2,3.5|
4,3,87|
4,4,92|
];
constraint_x2_y2=[
0,0,89|
0,1,96|
0,2,12|
0,3,99|
0,4,79|
1,0,36|
1,1,32|
1,2,66|
1,3,98|
1,4,71|
2,0,82|
2,1,82|
2,2,97|
2,3,64|
2,4,40|
3,0,2.1|
3,1,16|
3,2,55|
3,3,45|
3,4,25|
4,0,23|
4,1,11|
4,2,9.5|
4,3,45|
4,4,25|
];
constraint_x3_y3=[
0,0,43|
0,1,73|
0,2,80|
0,3,16|
0,4,34|
1,0,61|
1,1,77|
1,2,51|
1,3,91|
1,4,0.54|
2,0,34|
2,1,67|
2,2,83|
2,3,70|
2,4,94|
3,0,38|
3,1,65|
3,2,44|
3,3,21|
3,4,55|
4,0,4.3|
4,1,44|
4,2,26|
4,3,35|
4,4,49|
];
constraint_x4_y4=[
0,0,21|
0,1,90|
0,2,57|
0,3,44|
0,4,63|
1,0,12|
1,1,81|
1,2,97|
1,3,42|
1,4,14|
2,0,89|
2,1,64|
2,2,32|
2,3,96|
2,4,25|
3,0,49|
3,1,34|
3,2,84|
3,3,39|
3,4,0.83|
4,0,80|
4,1,48|
4,2,40|
4,3,65|
4,4,46|
];
constraint_x5_y5=[
0,0,24|
0,1,72|
0,2,62|
0,3,64|
0,4,61|
1,0,26|
1,1,28|
1,2,12|
1,3,85|
1,4,94|
2,0,19|
2,1,9.1|
2,2,81|
2,3,41|
2,4,57|
3,0,94|
3,1,48|
3,2,22|
3,3,29|
3,4,56|
4,0,91|
4,1,78|
4,2,60|
4,3,61|
4,4,8|
];
constraint_x6_y6=[
0,0,4.2|
0,1,93|
0,2,59|
0,3,15|
0,4,16|
1,0,70|
1,1,50|
1,2,76|
1,3,69|
1,4,98|
2,0,69|
2,1,19|
2,2,21|
2,3,72|
2,4,12|
3,0,59|
3,1,31|
3,2,69|
3,3,44|
3,4,8.7|
4,0,4|
4,1,3.5|
4,2,35|
4,3,65|
4,4,79|
];
constraint_x7_y7=[
0,0,9.4|
0,1,11|
0,2,23|
0,3,99|
0,4,26|
1,0,16|
1,1,11|
1,2,9.8|
1,3,18|
1,4,33|
2,0,48|
2,1,8.5|
2,2,21|
2,3,24|
2,4,70|
3,0,25|
3,1,21|
3,2,9.6|
3,3,37|
3,4,93|
4,0,18|
4,1,24|
4,2,21|
4,3,90|
4,4,44|
];
constraint_x8_y8=[
0,0,48|
0,1,82|
0,2,25|
0,3,80|
0,4,39|
1,0,76|
1,1,77|
1,2,91|
1,3,77|
1,4,5.1|
2,0,31|
2,1,64|
2,2,25|
2,3,54|
2,4,10|
3,0,35|
3,1,63|
3,2,13|
3,3,95|
3,4,74|
4,0,78|
4,1,84|
4,2,13|
4,3,71|
4,4,38|
];
constraint_x9_y9=[
0,0,17|
0,1,23|
0,2,72|
0,3,0.65|
0,4,69|
1,0,30|
1,1,96|
1,2,89|
1,3,30|
1,4,92|
2,0,86|
2,1,56|
2,2,91|
2,3,60|
2,4,0.96|
3,0,78|
3,1,95|
3,2,10|
3,3,56|
3,4,89|
4,0,52|
4,1,54|
4,2,25|
4,3,87|
4,4,2.1|
];
constraint_x10_y10=[
0,0,2.8|
0,1,27|
0,2,3|
0,3,92|
0,4,79|
1,0,43|
1,1,29|
1,2,6|
1,3,2.6|
1,4,19|
2,0,7.8|
2,1,52|
2,2,55|
2,3,5.7|
2,4,3.1|
3,0,54|
3,1,26|
3,2,35|
3,3,13|
3,4,72|
4,0,66|
4,1,41|
4,2,35|
4,3,48|
4,4,65|
];
initial_distribution_y1=[0.047,0.056,0.29,0.28,0.33];
initial_distribution_y2=[0.22,0.059,0.041,0.28,0.4];
initial_distribution_y3=[0.14,0.058,0.23,0.44,0.14];
initial_distribution_y4=[0.32,0.16,0.3,0.068,0.15];
initial_distribution_y5=[0.31,0.042,0.28,0.32,0.05];
initial_distribution_y6=[0.24,0.24,0.28,0.14,0.11];
initial_distribution_y7=[0.21,0.26,0.18,0.11,0.24];
initial_distribution_y8=[0.19,0.048,0.038,0.34,0.38];
initial_distribution_y9=[0.22,0.25,0.14,0.15,0.24];
initial_distribution_y10=[0.36,0.019,0.25,0.14,0.22];
transition_y1=[
0.19,0.24,0.36,0.15,0.061|
0.13,0.24,0.14,0.16,0.33|
0.31,0.19,0.19,0.27,0.039|
0.22,0.2,0.13,0.17,0.28|
0.11,0.36,0.13,0.32,0.091|
];
transition_y2=[
0.078,0.27,0.25,0.29,0.12|
0.28,0.25,0.26,0.0088,0.2|
0.12,0.36,0.39,0.052,0.083|
0.029,0.42,0.094,0.23,0.23|
0.13,0.2,0.27,0.14,0.25|
];
transition_y3=[
0.23,0.3,0.19,0.21,0.056|
0.096,0.43,0.044,0.16,0.26|
0.023,0.42,0.21,0.06,0.29|
0.12,0.27,0.033,0.52,0.057|
0.27,0.33,0.083,0.16,0.16|
];
transition_y4=[
0.23,0.23,0.031,0.25,0.25|
0.36,0.085,0.29,0.12,0.14|
0.2,0.26,0.43,0.0083,0.093|
0.28,0.1,0.36,0.03,0.23|
0.11,0.15,0.22,0.15,0.37|
];
transition_y5=[
0.17,0.17,0.27,0.33,0.065|
0.24,0.098,0.2,0.21,0.25|
0.14,0.17,0.18,0.21,0.29|
0.16,0.36,0.13,0.31,0.032|
0.085,0.23,0.28,0.29,0.12|
];
transition_y6=[
0.15,0.18,0.38,0.23,0.051|
0.0033,0.27,0.24,0.22,0.27|
0.14,0.27,0.0059,0.35,0.23|
0.25,0.29,0.14,0.16,0.17|
0.036,0.46,0.25,0.13,0.13|
];
transition_y7=[
0.19,0.27,0.13,0.24,0.17|
0.04,0.073,0.23,0.34,0.32|
0.087,0.28,0.25,0.15,0.23|
0.14,0.19,0.28,0.29,0.11|
0.38,0.12,0.36,0.13,0.011|
];
transition_y8=[
0.34,0.21,0.18,0.27,0.007|
0.21,0.19,0.013,0.3,0.29|
0.12,0.11,0.21,0.31,0.26|
0.16,0.11,0.3,0.42,0.011|
0.16,0.088,0.53,0.082,0.14|
];
transition_y9=[
0.29,0.2,0.2,0.093,0.22|
0.36,0.14,0.14,0.19,0.18|
0.17,0.013,0.02,0.49,0.31|
0.055,0.32,0.32,0.19,0.12|
0.73,0.074,0.05,0.12,0.025|
];
transition_y10=[
0.25,0.21,0.24,0.26,0.04|
0.26,0.1,0.33,0.28,0.033|
0.061,0.25,0.21,0.11,0.36|
0.23,0.23,0.28,0.063,0.19|
0.26,0.2,0.36,0.057,0.12|
];
